c --- [ banner ] -------------------------------------------------------------
c 
c CaDiCaL Radically Simplified CDCL SAT Solver
c Copyright (c) 2016-2021 A. Biere, M. Fleury, N. Froleyks
c 
c Version 1.5.2 9c38a080b32c28d805e8e6ca21849856b0cda605
c g++ (Ubuntu 7.5.0-3ubuntu1~18.04) 7.5.0 -Wall -Wextra -O3 -DNDEBUG
c Wed Feb 16 23:15:36 EST 2022 Linux fac-vanhoeve01 5.4.0-99-generic x86_64
c 
c --- [ limit ] --------------------------------------------------------------
c 
c setting time limit to 600 seconds real time (due to '-t 600')
c setting conflict limit to 1000000000 conflicts (due to '1000000000')
c 
c --- [ parsing input ] ------------------------------------------------------
c 
c reading DIMACS file from 'ddfwcnfs/wap04a.col_40.cnf'
c opening file to read 'ddfwcnfs/wap04a.col_40.cnf'
c found 'p cnf 209240 11517191' header
c parsed 11517191 clauses in 7.99 seconds process time
c closing file 'ddfwcnfs/wap04a.col_40.cnf'
c after reading 199732645 bytes 190.5 MB
c 
c --- [ options ] ------------------------------------------------------------
c 
c all options are set to their default value
c 
c --- [ solving ] ------------------------------------------------------------
c 
c time measured in process time since initialization
c 
c  seconds   reductions  redundant   irredundant
c          MB    restarts       trail         variables
c           level   conflicts       glue            remaining
c 
c *  7.99 997  0 0   0    0    0  0% 0 11515591 207640 99%
c {  8.04 1000  0 0   0    0    0  0% 0 11515591 207640 99%
c - 10.92 1000 40 1   0  301  103  2% 36 11515591 207640 99%
c } 11.18 1000 40 1   0 1000  372  2% 36 11515591 207640 99%
c [ 11.18 1000  0 1   0 1000  372  0% 0 11515591 207640 99%
c O 11.18 1000 55 1   0 1005  376  2% 37 11515591 207640 99%
c - 18.96 1265 43 2   1 2137  944  2% 39 11515591 207640 99%
c ] 19.12 1265 45 2   1 3002 1590  2% 40 11515591 207640 99%
c { 19.12 1265 40 2   1 3002 1590  2% 36 11515591 207640 99%
c F 19.12 1265 40 2   1 3009 1596  2% 36 11515591 207640 99%
c - 24.75 1265 45 3   9 4892 2265  3% 38 11515591 207640 99%
c # 37.82 1258 44 3  12 6010 3012  3% 38 11515591 207640 99%
c } 37.97 1258 50 3  12 7002 3813  3% 38 11515591 207640 99%
c [ 37.97 1258 45 3  12 7002 3813  2% 40 11515591 207640 99%
c - 43.88 1259 47 4  13 8565 3596  3% 41 11515591 207640 99%
c I 44.20 1259 53 4  14 10011 4698  3% 41 11515591 207640 99%
c s 49.54 1259 5294 4  16 11587 5555  9% 50 11515591 207640 99%
c e 76.06 1260 5294 4  16 11587 1703  9% 50 10703141 198403 95%
c - 86.00 1257 9355 5  16 13159 2425 15% 53 10703141 198403 95%
c ] 99.71 1257 14060 5  17 15002 3979 21% 66 10703141 198403 95%
c 
c  seconds    reductions   redundant    irredundant
c          MB     restarts        trail          variables
c            level    conflicts       glue             remaining
c 
c { 99.71 1257 50 5  17 15002 3979  3% 38 10703141 198403 95%
c B 99.79 1257 89 5  17 15012 3989  3% 38 10703141 198403 95%
c - 105.32 1258 229 6  22 18612 4685  3% 34 10703141 198403 95%
c W 110.90 1258 188 6  22 21015 6464  3% 34 10703141 198403 95%
c - 116.89 1257 150 7  26 24976 5923  3% 33 10703141 198403 95%
c F 117.38 1257 131 7  26 28018 8038  3% 32 10703141 198403 95%
c } 130.40 1257 116 7  28 31002 10191  3% 32 10703141 198403 95%
c [ 130.40 1257 14060 7  28 31002 10191 21% 66 10703141 198403 95%
c - 135.65 1258 12429 8  28 32247 7251 19% 62 10703141 198403 95%
c s 139.64 1258 10169 8  30 34602 8319 17% 59 10703141 198403 95%
c s 157.37 1258 10169 8  30 34602 8109 17% 59 10703141 198403 95%
c ^ 160.50 1258 10169 8  30 34602 8109 17% 59 10703141 198403 95%
c B 160.74 1258 9146 8  31 36021 9182 15% 58 10703141 198403 95%
c - 167.82 1259 10895 9  34 40426 8931 19% 66 10703141 198403 95%
c W 175.77 1259 9656 9  35 45022 12453 22% 80 10703141 198403 95%
c - 182.75 1260 9822 10  36 49515 9358 28% 80 10703141 198403 95%
c O 196.59 1260 8236 10  37 55025 13498 25% 82 10703141 198403 95%
c - 202.51 1259 7112 11  41 59512 9898 22% 76 10703141 198403 95%
c ] 203.16 1259 6408 11  43 63003 12224 20% 73 10703141 198403 95%
c { 203.16 1259 116 11  43 63003 12224  3% 32 10703141 198403 95%
c 
c  seconds      reductions     redundant    irredundant
c           MB       restarts         trail          variables
c              level     conflicts        glue             remaining
c 
c B 203.56 1259 111 11  43 66027 14803  3% 31 10703141 198403 95%
c s 204.97 1259 125 11 846 69124 15578  4% 32 10703141 198403 95%
c s 228.78 1259 125 11 846 69124 15378  4% 32 10703141 198403 95%
c ^ 232.00 1259 125 11 846 69124 15378  4% 32 10703141 198403 95%
c - 238.14 1258 121 12 1171 70421 8991  4% 32 10703141 198403 95%
c W 258.46 1258 101 12 2924 78028 11323  4% 33 10703141 198403 95%
c - 264.46 1257 94 13 3734 82238 6238  4% 34 10703141 198403 95%
c # 266.12 1257 84 13 4582 91030 9840  4% 35 10703141 198403 95%
c - 272.24 1258 80 14 4654 94964 7366  4% 35 10703141 198403 95%
c B 286.78 1258 71 14 4750 105031 13425  4% 35 10703141 198403 95%
c - 292.46 1258 70 15 4916 108597 9591  4% 35 10703141 198403 95%
c s 293.95 1258 66 15 5090 115154 12313  4% 36 10703141 198403 95%
c s 317.56 1258 66 15 5090 115154 10860  4% 36 10703141 198403 95%
c ^ 320.87 1258 66 15 5090 115154 10860  4% 36 10703141 198403 95%
c W 329.46 1258 64 15 5263 120033 13064  4% 36 10703141 198403 95%
c - 335.46 1258 63 16 5313 123139 8855  4% 36 10703141 198403 95%
c } 336.04 1258 61 16 5362 127003 10692  4% 36 10703141 198403 95%
c [ 336.04 1258 6408 16 5362 127003 10692 20% 73 10703141 198403 95%
c B 339.38 1258 8412 16 5367 136034 17713 23% 86 10703141 198403 95%
c - 345.19 1262 7903 17 5368 138591 12882 22% 84 10703141 198403 95%
c 
c  seconds       reductions       redundant    irredundant
c           MB        restarts           trail          variables
c              level       conflicts         glue             remaining
c 
c W 368.33 1262 5765 17 5371 153036 21850 17% 73 10703141 198403 95%
c - 374.55 1261 7422 18 5371 154952 14188 19% 80 10703141 198403 95%
c I 386.85 1261 15488 18 5374 171044 27848 26% 144 10703141 198403 95%
c - 392.53 1279 15673 19 5375 172222 18514 26% 142 10703141 198403 95%
c s 393.15 1279 15689 19 5375 172690 18203 26% 142 10703141 198403 95%
c w 405.51 1279 15689 19 5375 172690 18203 26% 142 10703141 198403 95%
c s 416.82 1279 15689 19 5375 172690 18017 26% 142 10703141 198403 95%
c ^ 419.93 1279 15689 19 5375 172690 18017 26% 142 10703141 198403 95%
c B 438.73 1279 12980 19 5385 190048 32320 25% 133 10703141 198403 95%
c - 444.13 1265 12984 20 5385 190400 19502 25% 133 10703141 198403 95%
c - 456.15 1266 10977 21 5393 209485 20001 25% 133 10703141 198403 95%
c W 466.46 1266 10904 21 5393 210049 20468 25% 133 10703141 198403 95%
c - 489.99 1266 8761 22 5401 229482 20906 23% 130 10703141 198403 95%
c O 490.28 1266 8606 22 5401 231050 22043 24% 129 10703141 198403 95%
c s 493.06 1266 7514 22 5402 241732 29486 21% 118 10703141 198403 95%
c w 505.64 1266 7514 22 5402 241732 29482 21% 118 10703141 198403 95%
c s 517.44 1266 7514 22 5402 241732 27979 21% 118 10703141 198403 95%
c ^ 520.61 1266 7514 22 5402 241732 27979 21% 118 10703141 198403 95%
c - 528.14 1261 6753 23 5402 250385 19307 19% 111 10703141 198403 95%
c B 528.80 1261 6538 23 5403 253054 21401 18% 108 10703141 198403 95%
c 
c  seconds       reductions       redundant     irredundant
c           MB        restarts           trail           variables
c              level       conflicts          glue             remaining
c 
c ] 529.16 1261 7587 23 5403 255004 22879 19% 108 10703141 198403 95%
c { 529.16 1261 61 23 5403 255004 22879  4% 36 10703141 198403 95%
c - 536.74 1260 62 24 9710 272199 15126  4% 41 10703141 198403 95%
c F 549.83 1260 62 24 10668 276056 16524  4% 42 10703141 198403 95%
c - 559.03 1260 57 25 10674 294921 18565  4% 41 10703141 198403 95%
c B 560.07 1260 56 25 10674 300061 22152  3% 41 10703141 198403 95%
c - 568.51 1263 97 26 12527 318551 23572  4% 43 10703141 198403 95%
c s 569.72 1263 104 26 12527 322284 25863  4% 42 10703141 198403 95%
c w 582.07 1263 104 26 12527 322284 25854  4% 42 10703141 198403 95%
c s 591.40 1263 104 26 12527 322284 25739  4% 42 10703141 198403 95%
c } 601.18 1263 109 26 12527 325062 28009  4% 42 10703141 198403 95%
c ? 601.18 1263 109 26 12527 325062 28009  4% 42 10703141 198403 95%
c 
c --- [ result ] -------------------------------------------------------------
c 
c UNKNOWN
c 
c --- [ run-time profiling ] -------------------------------------------------
c 
c process time taken by individual solving procedures
c (percentage relative to process time for solving)
c 
c       316.12   53.29% search
c       277.07   46.71% simplify
c       158.27   26.68% stable
c       106.30   17.92% unstable
c        68.19   11.50% elim
c        64.61   10.89% vivify
c        61.97   10.45% ternary
c        51.50    8.68% walk
c        12.96    2.19% subsume
c        10.33    1.74% probe
c         7.99    1.35% parse
c         0.06    0.01% lucky
c   =================================
c       593.19   98.67% solve
c 
c last line shows process time for solving
c (percentage relative to total process time)
c 
c --- [ statistics ] ---------------------------------------------------------
c 
c chronological:             60614        18.65 %  of conflicts
c conflicts:                325062       547.99    per second
c decisions:               1933938      3260.24    per second
c eliminated:                 9237         4.41 %  of all variables
c fixed:                      1600         0.76 %  of all variables
c learned:                  321758        98.98 %  per conflict
c learned_lits:           52789201       100.00 %  learned literals
c minimized:                     0         0.00 %  learned literals
c shrunken:               21787501        41.27 %  learned literals
c minishrunken:            1034766         1.96 %  learned literals
c propagations:          124873822         0.21 M  per second
c reduced:                  179479        55.21 %  per conflict
c rephased:                     25     13002.48    interval
c restarts:                  12527        25.95    interval
c stabilizing:                   4        52.30 %  of conflicts
c subsumed:                 110400         0.46 %  of all clauses
c strengthened:              19278         0.08 %  of all clauses
c vivified:                     28         0.00 %  of all clauses
c walked:                        7     46437.43    interval
c weakened:                 975519         2.70    average size
c 
c seconds are measured in process time for solving
c 
c --- [ resources ] ----------------------------------------------------------
c 
c total process time since initialization:       601.18    seconds
c total real time since initialization:          601.21    seconds
c maximum resident set size of process:         1616.97    MB
c 
c --- [ shutting down ] ------------------------------------------------------
c 
c exit 0
